param set_len = 30;
param target_sum = 9210240641;
param values := [1] 285921970 [2] 361990449 [3] 673618064 [4] 256853492 [5] 220004382 [6] 447544768 [7] 622673129 [8] 172203087 [9] 834133524 [10] 555880409 [11] 354188248 [12] 797820039 [13] 991233243 [14] 65588289 [15] 768035074 [16] 1010086557 [17] 775713096 [18] 689650590 [19] 737065537 [20] 248406241 [21] 973759581 [22] 875943523 [23] 205198323 [24] 694829890 [25] 81278042 [26] 291728664 [27] 834421680 [28] 82716256 [29] 1008553069 [30] 967737903 ;
